c Sudoku solution
p cnf 729 0
125 0
131 0
168 0
227 0
246 0
259 0
262 0
283 0
363 0
113 0
437 0
489 0
492 0
557 0
154 0
147 0
591 0
271 0
295 0
626 0
674 0
685 0
697 0
829 0
858 0
876 0
586 0
182 0
179 0
196 0
916 0
336 0
319 0
322 0
924 0
945 0
775 0
972 0
341 0
355 0
377 0
214 0
238 0
534 0
639 0
661 0
835 0
732 0
842 0
893 0
933 0
951 0
512 0
618 0
415 0
421 0
523 0
565 0
549 0
578 0
473 0
456 0
464 0
448 0
728 0
643 0
652 0
753 0
766 0
744 0
867 0
969 0
799 0
884 0
781 0
987 0
998 0
717 0
811 0
388 0
394 0
